p cnf 33 212
1 4 7 10 13 16 19 22 25 28 31 0
2 5 8 11 14 17 20 23 26 29 32 0
3 6 9 12 15 18 21 24 27 30 33 0
-1 -2 0
-1 -3 0
-2 -3 0
-4 -5 0
-4 -6 0
-5 -6 0
-7 -8 0
-7 -9 0
-8 -9 0
-10 -11 0
-10 -12 0
-11 -12 0
-13 -14 0
-13 -15 0
-14 -15 0
-16 -17 0
-16 -18 0
-17 -18 0
-19 -20 0
-19 -21 0
-20 -21 0
-22 -23 0
-22 -24 0
-23 -24 0
-25 -26 0
-25 -27 0
-26 -27 0
-28 -29 0
-28 -30 0
-29 -30 0
-31 -32 0
-31 -33 0
-32 -33 0
-1 -4 0
-1 -7 0
-1 -10 0
-1 -13 0
-1 -16 0
-1 -19 0
-1 -22 0
-1 -25 0
-1 -28 0
-1 -31 0
-4 -7 0
-4 -10 0
-4 -13 0
-4 -16 0
-4 -19 0
-4 -22 0
-4 -25 0
-4 -28 0
-4 -31 0
-7 -10 0
-7 -13 0
-7 -16 0
-7 -19 0
-7 -22 0
-7 -25 0
-7 -28 0
-7 -31 0
-10 -13 0
-10 -16 0
-10 -19 0
-10 -22 0
-10 -25 0
-10 -28 0
-10 -31 0
-13 -16 0
-13 -19 0
-13 -22 0
-13 -25 0
-13 -28 0
-13 -31 0
-16 -19 0
-16 -22 0
-16 -25 0
-16 -28 0
-16 -31 0
-19 -22 0
-19 -25 0
-19 -28 0
-19 -31 0
-22 -25 0
-22 -28 0
-22 -31 0
-25 -28 0
-25 -31 0
-28 -31 0
-2 -5 0
-2 -8 0
-2 -11 0
-2 -14 0
-2 -17 0
-2 -20 0
-2 -23 0
-2 -26 0
-2 -29 0
-2 -32 0
-5 -8 0
-5 -11 0
-5 -14 0
-5 -17 0
-5 -20 0
-5 -23 0
-5 -26 0
-5 -29 0
-5 -32 0
-8 -11 0
-8 -14 0
-8 -17 0
-8 -20 0
-8 -23 0
-8 -26 0
-8 -29 0
-8 -32 0
-11 -14 0
-11 -17 0
-11 -20 0
-11 -23 0
-11 -26 0
-11 -29 0
-11 -32 0
-14 -17 0
-14 -20 0
-14 -23 0
-14 -26 0
-14 -29 0
-14 -32 0
-17 -20 0
-17 -23 0
-17 -26 0
-17 -29 0
-17 -32 0
-20 -23 0
-20 -26 0
-20 -29 0
-20 -32 0
-23 -26 0
-23 -29 0
-23 -32 0
-26 -29 0
-26 -32 0
-29 -32 0
-3 -6 0
-3 -9 0
-3 -12 0
-3 -15 0
-3 -18 0
-3 -21 0
-3 -24 0
-3 -27 0
-3 -30 0
-3 -33 0
-6 -9 0
-6 -12 0
-6 -15 0
-6 -18 0
-6 -21 0
-6 -24 0
-6 -27 0
-6 -30 0
-6 -33 0
-9 -12 0
-9 -15 0
-9 -18 0
-9 -21 0
-9 -24 0
-9 -27 0
-9 -30 0
-9 -33 0
-12 -15 0
-12 -18 0
-12 -21 0
-12 -24 0
-12 -27 0
-12 -30 0
-12 -33 0
-15 -18 0
-15 -21 0
-15 -24 0
-15 -27 0
-15 -30 0
-15 -33 0
-18 -21 0
-18 -24 0
-18 -27 0
-18 -30 0
-18 -33 0
-21 -24 0
-21 -27 0
-21 -30 0
-21 -33 0
-24 -27 0
-24 -30 0
-24 -33 0
-27 -30 0
-27 -33 0
-30 -33 0
1 4 10 19 25 2 5 11 20 26 3 6 12 21 27 0
4 1 7 16 22 5 2 8 17 23 6 3 9 18 24 0
7 4 13 19 28 8 5 14 20 29 9 6 15 21 30 0
10 1 13 16 28 11 2 14 17 29 12 3 15 18 30 0
13 7 10 22 25 14 8 11 23 26 15 9 12 24 27 0
16 4 10 31 17 5 11 32 18 6 12 33 0
19 1 7 31 20 2 8 32 21 3 9 33 0
22 4 13 31 23 5 14 32 24 6 15 33 0
25 1 13 31 26 2 14 32 27 3 15 33 0
28 7 10 31 29 8 11 32 30 9 12 33 0
31 16 19 22 25 28 32 17 20 23 26 29 33 18 21 24 27 30 0
